c "402690.clq"
p edge 251 3760
e 1 17
e 1 18
e 1 19
e 1 20
e 1 21
e 1 22
e 1 23
e 1 25
e 1 26
e 1 27
e 1 32
e 1 35
e 1 37
e 1 42
e 1 44
e 1 45
e 1 48
e 1 51
e 1 57
e 1 58
e 1 59
e 1 65
e 1 73
e 1 75
e 1 82
e 1 86
e 1 89
e 1 159
e 1 166
e 1 168
e 1 178
e 1 201
e 1 203
e 1 211
e 1 237
e 1 239
e 1 248
e 2 17
e 2 18
e 2 19
e 2 20
e 2 21
e 2 22
e 2 23
e 2 24
e 2 25
e 2 27
e 2 30
e 2 31
e 2 32
e 2 33
e 2 36
e 2 38
e 2 42
e 2 43
e 2 46
e 2 56
e 2 66
e 2 73
e 2 77
e 2 78
e 2 81
e 2 89
e 2 99
e 2 109
e 2 113
e 2 117
e 2 123
e 2 124
e 2 153
e 2 154
e 2 182
e 2 185
e 2 194
e 2 202
e 2 203
e 2 208
e 2 209
e 2 215
e 2 219
e 2 222
e 2 224
e 2 225
e 2 230
e 2 233
e 2 240
e 2 250
e 3 17
e 3 18
e 3 19
e 3 20
e 3 21
e 3 22
e 3 24
e 3 25
e 3 26
e 3 27
e 3 29
e 3 30
e 3 31
e 3 33
e 3 36
e 3 37
e 3 40
e 3 41
e 3 43
e 3 46
e 3 48
e 3 49
e 3 50
e 3 52
e 3 58
e 3 61
e 3 67
e 3 68
e 3 72
e 3 73
e 3 79
e 3 80
e 3 83
e 3 85
e 3 93
e 3 96
e 3 100
e 3 105
e 3 112
e 3 116
e 3 124
e 3 126
e 3 131
e 3 138
e 3 142
e 3 145
e 3 148
e 3 150
e 3 153
e 3 167
e 3 184
e 3 198
e 3 206
e 3 218
e 3 222
e 3 225
e 3 230
e 3 237
e 3 238
e 3 250
e 4 17
e 4 18
e 4 22
e 4 23
e 4 24
e 4 28
e 4 32
e 4 36
e 4 37
e 4 43
e 4 52
e 4 55
e 4 56
e 4 58
e 4 60
e 4 66
e 4 67
e 4 68
e 4 76
e 4 78
e 4 81
e 4 85
e 4 88
e 4 100
e 4 102
e 4 135
e 4 144
e 4 154
e 4 170
e 4 216
e 4 223
e 5 17
e 5 18
e 5 19
e 5 20
e 5 21
e 5 22
e 5 23
e 5 27
e 5 28
e 5 31
e 5 32
e 5 33
e 5 34
e 5 37
e 5 41
e 5 42
e 5 44
e 5 45
e 5 46
e 5 54
e 5 55
e 5 70
e 5 78
e 5 99
e 5 116
e 5 125
e 5 130
e 5 145
e 5 161
e 5 174
e 5 177
e 5 187
e 5 211
e 5 216
e 5 225
e 5 228
e 5 233
e 5 243
e 6 17
e 6 19
e 6 20
e 6 21
e 6 24
e 6 25
e 6 26
e 6 29
e 6 30
e 6 31
e 6 34
e 6 35
e 6 36
e 6 38
e 6 40
e 6 41
e 6 49
e 6 50
e 6 53
e 6 55
e 6 56
e 6 57
e 6 58
e 6 62
e 6 69
e 6 74
e 6 81
e 6 88
e 6 99
e 6 107
e 6 108
e 6 109
e 6 119
e 6 132
e 6 133
e 6 137
e 6 139
e 6 151
e 6 160
e 6 165
e 6 176
e 6 185
e 6 186
e 6 193
e 6 195
e 6 199
e 6 200
e 6 201
e 6 231
e 6 240
e 6 249
e 7 17
e 7 18
e 7 19
e 7 20
e 7 21
e 7 23
e 7 24
e 7 27
e 7 33
e 7 34
e 7 35
e 7 38
e 7 39
e 7 41
e 7 46
e 7 59
e 7 63
e 7 64
e 7 66
e 7 68
e 7 79
e 7 82
e 7 85
e 7 96
e 7 100
e 7 110
e 7 134
e 7 154
e 7 170
e 7 205
e 7 207
e 7 208
e 7 212
e 8 17
e 8 18
e 8 19
e 8 20
e 8 21
e 8 22
e 8 23
e 8 26
e 8 27
e 8 30
e 8 38
e 8 43
e 8 44
e 8 48
e 8 51
e 8 52
e 8 60
e 8 62
e 8 98
e 8 105
e 8 107
e 8 127
e 8 140
e 8 148
e 8 152
e 8 165
e 8 174
e 8 185
e 8 199
e 8 204
e 8 219
e 8 226
e 8 234
e 9 17
e 9 18
e 9 19
e 9 20
e 9 21
e 9 22
e 9 24
e 9 26
e 9 29
e 9 32
e 9 34
e 9 35
e 9 41
e 9 42
e 9 58
e 9 59
e 9 61
e 9 63
e 9 64
e 9 69
e 9 72
e 9 86
e 9 101
e 9 103
e 9 117
e 9 123
e 9 152
e 9 157
e 9 198
e 9 200
e 9 214
e 9 217
e 9 220
e 9 232
e 9 241
e 9 245
e 9 248
e 10 17
e 10 18
e 10 20
e 10 21
e 10 22
e 10 23
e 10 24
e 10 25
e 10 26
e 10 27
e 10 28
e 10 30
e 10 33
e 10 35
e 10 36
e 10 37
e 10 40
e 10 42
e 10 45
e 10 47
e 10 51
e 10 56
e 10 59
e 10 61
e 10 65
e 10 66
e 10 67
e 10 70
e 10 74
e 10 79
e 10 80
e 10 87
e 10 89
e 10 102
e 10 107
e 10 112
e 10 114
e 10 116
e 10 122
e 10 141
e 10 151
e 10 171
e 10 173
e 10 181
e 10 182
e 10 191
e 10 192
e 10 198
e 10 210
e 10 217
e 10 220
e 10 222
e 10 233
e 11 17
e 11 18
e 11 19
e 11 20
e 11 27
e 11 28
e 11 29
e 11 30
e 11 32
e 11 36
e 11 37
e 11 39
e 11 42
e 11 44
e 11 46
e 11 49
e 11 55
e 11 62
e 11 68
e 11 69
e 11 70
e 11 73
e 11 76
e 11 83
e 11 102
e 11 107
e 11 108
e 11 113
e 11 123
e 11 126
e 11 129
e 11 131
e 11 136
e 11 137
e 11 144
e 11 151
e 11 162
e 11 172
e 11 176
e 11 177
e 11 200
e 11 209
e 11 220
e 11 221
e 11 228
e 11 230
e 11 237
e 11 238
e 11 248
e 11 250
e 12 17
e 12 18
e 12 19
e 12 20
e 12 21
e 12 23
e 12 24
e 12 25
e 12 27
e 12 28
e 12 29
e 12 30
e 12 34
e 12 39
e 12 47
e 12 48
e 12 55
e 12 60
e 12 61
e 12 62
e 12 63
e 12 72
e 12 74
e 12 86
e 12 88
e 12 89
e 12 93
e 12 105
e 12 118
e 12 124
e 12 135
e 12 140
e 12 147
e 12 150
e 12 158
e 12 161
e 12 163
e 12 169
e 12 171
e 12 176
e 12 178
e 12 189
e 12 194
e 12 195
e 12 200
e 12 229
e 12 244
e 13 17
e 13 18
e 13 19
e 13 20
e 13 21
e 13 22
e 13 23
e 13 24
e 13 25
e 13 26
e 13 28
e 13 29
e 13 31
e 13 33
e 13 34
e 13 38
e 13 39
e 13 40
e 13 42
e 13 45
e 13 51
e 13 53
e 13 54
e 13 56
e 13 62
e 13 64
e 13 65
e 13 71
e 13 75
e 13 79
e 13 85
e 13 87
e 13 101
e 13 106
e 13 109
e 13 111
e 13 114
e 13 122
e 13 126
e 13 129
e 13 133
e 13 137
e 13 141
e 13 144
e 13 145
e 13 147
e 13 149
e 13 159
e 13 160
e 13 166
e 13 174
e 13 197
e 13 209
e 13 213
e 14 17
e 14 18
e 14 19
e 14 21
e 14 22
e 14 25
e 14 28
e 14 30
e 14 34
e 14 35
e 14 41
e 14 57
e 14 65
e 14 71
e 14 74
e 14 95
e 14 100
e 14 161
e 14 164
e 14 175
e 14 227
e 14 234
e 14 249
e 15 17
e 15 18
e 15 19
e 15 20
e 15 22
e 15 26
e 15 29
e 15 30
e 15 52
e 15 64
e 15 71
e 15 76
e 15 80
e 15 82
e 15 84
e 15 92
e 15 102
e 15 107
e 15 117
e 15 166
e 15 169
e 15 195
e 15 218
e 15 220
e 15 221
e 15 238
e 15 239
e 16 17
e 16 18
e 16 19
e 16 23
e 16 25
e 16 31
e 16 32
e 16 37
e 16 38
e 16 50
e 16 87
e 16 101
e 16 106
e 16 114
e 16 120
e 16 151
e 16 156
e 16 172
e 17 18
e 17 19
e 17 20
e 17 21
e 17 22
e 17 23
e 17 24
e 17 25
e 17 26
e 17 27
e 17 28
e 17 29
e 17 30
e 17 31
e 17 32
e 17 33
e 17 35
e 17 36
e 17 38
e 17 39
e 17 41
e 17 42
e 17 44
e 17 45
e 17 46
e 17 47
e 17 50
e 17 51
e 17 53
e 17 54
e 17 55
e 17 56
e 17 57
e 17 61
e 17 62
e 17 66
e 17 67
e 17 69
e 17 70
e 17 75
e 17 78
e 17 79
e 17 80
e 17 82
e 17 84
e 17 85
e 17 86
e 17 87
e 17 89
e 17 90
e 17 91
e 17 94
e 17 95
e 17 96
e 17 109
e 17 119
e 17 120
e 17 126
e 17 128
e 17 140
e 17 143
e 17 147
e 17 148
e 17 150
e 17 151
e 17 152
e 17 160
e 17 171
e 17 172
e 17 174
e 17 182
e 17 202
e 17 204
e 17 213
e 17 220
e 17 227
e 17 238
e 17 242
e 17 243
e 17 248
e 17 251
e 18 19
e 18 20
e 18 21
e 18 22
e 18 23
e 18 24
e 18 25
e 18 26
e 18 27
e 18 29
e 18 32
e 18 34
e 18 35
e 18 38
e 18 39
e 18 41
e 18 43
e 18 45
e 18 54
e 18 55
e 18 57
e 18 60
e 18 61
e 18 72
e 18 73
e 18 78
e 18 82
e 18 88
e 18 89
e 18 92
e 18 93
e 18 94
e 18 95
e 18 101
e 18 104
e 18 107
e 18 108
e 18 119
e 18 121
e 18 127
e 18 130
e 18 131
e 18 137
e 18 142
e 18 151
e 18 155
e 18 156
e 18 161
e 18 167
e 18 169
e 18 170
e 18 172
e 18 174
e 18 177
e 18 178
e 18 181
e 18 185
e 18 189
e 18 190
e 18 191
e 18 195
e 18 198
e 18 205
e 18 208
e 18 213
e 18 214
e 18 216
e 18 219
e 18 225
e 18 229
e 18 239
e 19 20
e 19 21
e 19 22
e 19 23
e 19 24
e 19 26
e 19 27
e 19 28
e 19 29
e 19 31
e 19 32
e 19 33
e 19 34
e 19 35
e 19 36
e 19 38
e 19 39
e 19 40
e 19 42
e 19 44
e 19 45
e 19 46
e 19 51
e 19 52
e 19 54
e 19 56
e 19 59
e 19 60
e 19 68
e 19 73
e 19 74
e 19 75
e 19 77
e 19 80
e 19 81
e 19 84
e 19 86
e 19 87
e 19 88
e 19 90
e 19 91
e 19 93
e 19 94
e 19 95
e 19 97
e 19 99
e 19 102
e 19 103
e 19 106
e 19 107
e 19 112
e 19 113
e 19 116
e 19 118
e 19 123
e 19 127
e 19 132
e 19 139
e 19 140
e 19 144
e 19 160
e 19 163
e 19 164
e 19 169
e 19 170
e 19 171
e 19 183
e 19 187
e 19 188
e 19 190
e 19 201
e 19 203
e 19 207
e 19 217
e 19 220
e 19 223
e 19 230
e 19 231
e 19 234
e 19 239
e 19 240
e 19 243
e 20 21
e 20 22
e 20 23
e 20 24
e 20 25
e 20 26
e 20 27
e 20 29
e 20 30
e 20 31
e 20 36
e 20 37
e 20 39
e 20 40
e 20 41
e 20 43
e 20 47
e 20 54
e 20 56
e 20 64
e 20 71
e 20 73
e 20 84
e 20 93
e 20 94
e 20 95
e 20 103
e 20 108
e 20 111
e 20 112
e 20 113
e 20 115
e 20 116
e 20 125
e 20 127
e 20 128
e 20 133
e 20 137
e 20 140
e 20 159
e 20 160
e 20 162
e 20 165
e 20 169
e 20 177
e 20 213
e 20 233
e 20 241
e 20 251
e 21 22
e 21 23
e 21 24
e 21 25
e 21 26
e 21 27
e 21 28
e 21 29
e 21 30
e 21 31
e 21 33
e 21 34
e 21 35
e 21 36
e 21 38
e 21 40
e 21 41
e 21 42
e 21 43
e 21 45
e 21 46
e 21 47
e 21 50
e 21 53
e 21 55
e 21 59
e 21 64
e 21 65
e 21 67
e 21 71
e 21 74
e 21 75
e 21 76
e 21 86
e 21 88
e 21 90
e 21 91
e 21 97
e 21 105
e 21 108
e 21 116
e 21 124
e 21 136
e 21 139
e 21 140
e 21 144
e 21 146
e 21 151
e 21 156
e 21 157
e 21 166
e 21 171
e 21 182
e 21 197
e 21 198
e 21 204
e 21 205
e 21 209
e 21 215
e 21 217
e 21 224
e 21 229
e 21 233
e 21 243
e 21 246
e 21 248
e 22 23
e 22 24
e 22 25
e 22 26
e 22 27
e 22 28
e 22 29
e 22 31
e 22 32
e 22 33
e 22 35
e 22 38
e 22 39
e 22 40
e 22 41
e 22 45
e 22 47
e 22 50
e 22 53
e 22 55
e 22 57
e 22 58
e 22 63
e 22 65
e 22 67
e 22 69
e 22 70
e 22 71
e 22 75
e 22 77
e 22 80
e 22 81
e 22 82
e 22 83
e 22 90
e 22 91
e 22 96
e 22 101
e 22 108
e 22 109
e 22 113
e 22 120
e 22 122
e 22 126
e 22 131
e 22 134
e 22 135
e 22 141
e 22 147
e 22 166
e 22 172
e 22 174
e 22 178
e 22 179
e 22 180
e 22 182
e 22 191
e 22 193
e 22 198
e 22 201
e 22 202
e 22 206
e 22 208
e 22 210
e 22 214
e 22 222
e 22 226
e 22 229
e 22 230
e 22 232
e 22 243
e 23 24
e 23 25
e 23 26
e 23 28
e 23 29
e 23 30
e 23 32
e 23 33
e 23 34
e 23 39
e 23 40
e 23 47
e 23 48
e 23 53
e 23 55
e 23 57
e 23 63
e 23 64
e 23 66
e 23 72
e 23 73
e 23 74
e 23 76
e 23 77
e 23 78
e 23 82
e 23 83
e 23 84
e 23 85
e 23 86
e 23 91
e 23 92
e 23 97
e 23 98
e 23 101
e 23 105
e 23 113
e 23 117
e 23 121
e 23 123
e 23 125
e 23 127
e 23 132
e 23 134
e 23 143
e 23 145
e 23 146
e 23 153
e 23 164
e 23 171
e 23 172
e 23 175
e 23 176
e 23 178
e 23 180
e 23 186
e 23 188
e 23 195
e 23 196
e 23 198
e 23 210
e 23 212
e 23 217
e 23 223
e 23 225
e 23 227
e 23 236
e 23 238
e 23 242
e 23 247
e 23 249
e 24 25
e 24 26
e 24 27
e 24 28
e 24 29
e 24 30
e 24 31
e 24 32
e 24 33
e 24 34
e 24 36
e 24 37
e 24 39
e 24 41
e 24 44
e 24 45
e 24 46
e 24 47
e 24 53
e 24 54
e 24 59
e 24 61
e 24 63
e 24 66
e 24 72
e 24 75
e 24 77
e 24 80
e 24 82
e 24 83
e 24 85
e 24 86
e 24 88
e 24 90
e 24 97
e 24 100
e 24 105
e 24 107
e 24 109
e 24 112
e 24 113
e 24 119
e 24 120
e 24 124
e 24 128
e 24 129
e 24 130
e 24 138
e 24 146
e 24 147
e 24 148
e 24 156
e 24 164
e 24 166
e 24 167
e 24 168
e 24 173
e 24 175
e 24 176
e 24 180
e 24 185
e 24 186
e 24 189
e 24 190
e 24 192
e 24 196
e 24 198
e 24 207
e 24 209
e 24 210
e 24 227
e 24 232
e 24 237
e 24 251
e 25 28
e 25 31
e 25 36
e 25 37
e 25 44
e 25 51
e 25 54
e 25 56
e 25 57
e 25 60
e 25 61
e 25 62
e 25 63
e 25 64
e 25 65
e 25 67
e 25 70
e 25 71
e 25 74
e 25 76
e 25 81
e 25 82
e 25 84
e 25 89
e 25 92
e 25 93
e 25 98
e 25 101
e 25 107
e 25 109
e 25 110
e 25 112
e 25 125
e 25 132
e 25 137
e 25 139
e 25 144
e 25 148
e 25 152
e 25 157
e 25 159
e 25 167
e 25 178
e 25 186
e 25 200
e 25 214
e 25 219
e 25 223
e 25 226
e 25 227
e 25 234
e 25 239
e 25 248
e 25 250
e 26 28
e 26 30
e 26 31
e 26 34
e 26 37
e 26 41
e 26 43
e 26 48
e 26 50
e 26 53
e 26 54
e 26 55
e 26 56
e 26 64
e 26 65
e 26 66
e 26 72
e 26 81
e 26 85
e 26 88
e 26 98
e 26 101
e 26 115
e 26 119
e 26 120
e 26 125
e 26 128
e 26 133
e 26 134
e 26 136
e 26 141
e 26 146
e 26 147
e 26 153
e 26 157
e 26 158
e 26 160
e 26 167
e 26 168
e 26 172
e 26 175
e 26 193
e 26 206
e 26 215
e 26 226
e 27 28
e 27 31
e 27 35
e 27 36
e 27 37
e 27 39
e 27 42
e 27 43
e 27 44
e 27 47
e 27 49
e 27 68
e 27 79
e 27 80
e 27 98
e 27 101
e 27 106
e 27 107
e 27 109
e 27 110
e 27 111
e 27 123
e 27 125
e 27 128
e 27 133
e 27 139
e 27 142
e 27 143
e 27 155
e 27 156
e 27 163
e 27 165
e 27 170
e 27 173
e 27 178
e 27 181
e 27 188
e 27 189
e 27 199
e 27 205
e 27 226
e 27 230
e 27 243
e 27 245
e 27 251
e 28 29
e 28 32
e 28 33
e 28 35
e 28 40
e 28 43
e 28 46
e 28 47
e 28 48
e 28 52
e 28 53
e 28 54
e 28 58
e 28 61
e 28 70
e 28 71
e 28 76
e 28 83
e 28 91
e 28 96
e 28 102
e 28 115
e 28 125
e 28 129
e 28 132
e 28 133
e 28 134
e 28 136
e 28 151
e 28 153
e 28 154
e 28 156
e 28 159
e 28 168
e 28 170
e 28 173
e 28 177
e 28 186
e 28 190
e 28 195
e 28 197
e 28 203
e 28 204
e 28 205
e 28 209
e 28 212
e 28 213
e 28 215
e 28 225
e 28 231
e 28 243
e 29 30
e 29 31
e 29 32
e 29 33
e 29 35
e 29 38
e 29 39
e 29 40
e 29 49
e 29 50
e 29 51
e 29 52
e 29 55
e 29 56
e 29 59
e 29 61
e 29 67
e 29 69
e 29 70
e 29 81
e 29 88
e 29 93
e 29 97
e 29 99
e 29 103
e 29 122
e 29 124
e 29 125
e 29 149
e 29 150
e 29 154
e 29 155
e 29 161
e 29 175
e 29 186
e 29 190
e 29 191
e 29 196
e 29 213
e 29 223
e 29 224
e 29 232
e 29 234
e 29 248
e 29 249
e 30 32
e 30 33
e 30 34
e 30 35
e 30 36
e 30 38
e 30 40
e 30 42
e 30 44
e 30 45
e 30 50
e 30 54
e 30 57
e 30 58
e 30 59
e 30 60
e 30 63
e 30 67
e 30 71
e 30 72
e 30 73
e 30 74
e 30 78
e 30 92
e 30 95
e 30 97
e 30 98
e 30 101
e 30 104
e 30 110
e 30 115
e 30 122
e 30 129
e 30 134
e 30 139
e 30 150
e 30 156
e 30 157
e 30 158
e 30 170
e 30 187
e 30 191
e 30 195
e 30 202
e 30 203
e 30 204
e 30 207
e 30 211
e 30 214
e 30 217
e 30 222
e 30 225
e 30 238
e 30 243
e 30 251
e 31 33
e 31 35
e 31 36
e 31 37
e 31 38
e 31 42
e 31 44
e 31 46
e 31 48
e 31 49
e 31 50
e 31 52
e 31 53
e 31 58
e 31 60
e 31 61
e 31 64
e 31 66
e 31 68
e 31 70
e 31 72
e 31 75
e 31 76
e 31 84
e 31 91
e 31 95
e 31 96
e 31 98
e 31 100
e 31 101
e 31 108
e 31 120
e 31 131
e 31 133
e 31 135
e 31 138
e 31 139
e 31 143
e 31 144
e 31 146
e 31 147
e 31 149
e 31 150
e 31 151
e 31 152
e 31 155
e 31 156
e 31 158
e 31 161
e 31 162
e 31 163
e 31 173
e 31 180
e 31 183
e 31 187
e 31 193
e 31 194
e 31 197
e 31 198
e 31 204
e 31 207
e 31 212
e 31 213
e 31 214
e 31 222
e 31 231
e 31 239
e 31 248
e 31 250
e 32 34
e 32 36
e 32 38
e 32 39
e 32 42
e 32 43
e 32 44
e 32 46
e 32 47
e 32 49
e 32 50
e 32 51
e 32 53
e 32 57
e 32 62
e 32 66
e 32 67
e 32 85
e 32 87
e 32 89
e 32 94
e 32 95
e 32 97
e 32 104
e 32 130
e 32 134
e 32 135
e 32 140
e 32 143
e 32 148
e 32 158
e 32 159
e 32 162
e 32 171
e 32 179
e 32 182
e 32 184
e 32 196
e 32 199
e 32 205
e 32 215
e 32 218
e 32 230
e 32 234
e 32 243
e 32 244
e 32 246
e 33 34
e 33 40
e 33 45
e 33 48
e 33 49
e 33 52
e 33 55
e 33 63
e 33 71
e 33 90
e 33 97
e 33 105
e 33 116
e 33 119
e 33 124
e 33 132
e 33 135
e 33 139
e 33 142
e 33 144
e 33 147
e 33 149
e 33 160
e 33 172
e 33 182
e 33 191
e 33 206
e 33 221
e 34 37
e 34 39
e 34 40
e 34 41
e 34 42
e 34 47
e 34 48
e 34 49
e 34 51
e 34 57
e 34 61
e 34 62
e 34 63
e 34 64
e 34 68
e 34 69
e 34 72
e 34 73
e 34 75
e 34 79
e 34 82
e 34 84
e 34 88
e 34 91
e 34 97
e 34 104
e 34 105
e 34 107
e 34 109
e 34 112
e 34 119
e 34 121
e 34 127
e 34 128
e 34 129
e 34 136
e 34 137
e 34 148
e 34 152
e 34 153
e 34 163
e 34 168
e 34 169
e 34 173
e 34 177
e 34 192
e 34 212
e 34 223
e 34 229
e 34 231
e 34 243
e 35 37
e 35 44
e 35 46
e 35 47
e 35 49
e 35 50
e 35 52
e 35 53
e 35 54
e 35 57
e 35 59
e 35 60
e 35 61
e 35 64
e 35 76
e 35 77
e 35 81
e 35 83
e 35 94
e 35 99
e 35 106
e 35 108
e 35 116
e 35 124
e 35 128
e 35 136
e 35 138
e 35 145
e 35 148
e 35 168
e 35 177
e 35 178
e 35 195
e 35 200
e 35 246
e 36 37
e 36 38
e 36 40
e 36 43
e 36 45
e 36 48
e 36 52
e 36 54
e 36 69
e 36 70
e 36 72
e 36 75
e 36 77
e 36 81
e 36 85
e 36 86
e 36 87
e 36 89
e 36 91
e 36 94
e 36 103
e 36 113
e 36 121
e 36 122
e 36 126
e 36 127
e 36 129
e 36 134
e 36 141
e 36 144
e 36 145
e 36 157
e 36 175
e 36 183
e 36 188
e 36 190
e 36 196
e 36 199
e 36 206
e 36 210
e 36 218
e 36 230
e 36 236
e 36 241
e 36 243
e 36 247
e 37 39
e 37 41
e 37 45
e 37 46
e 37 47
e 37 48
e 37 49
e 37 51
e 37 64
e 37 65
e 37 69
e 37 71
e 37 77
e 37 82
e 37 85
e 37 95
e 37 98
e 37 101
e 37 108
e 37 110
e 37 122
e 37 124
e 37 136
e 37 140
e 37 142
e 37 154
e 37 155
e 37 164
e 37 168
e 37 177
e 37 179
e 37 187
e 37 192
e 37 206
e 37 207
e 37 221
e 37 232
e 37 248
e 38 40
e 38 41
e 38 43
e 38 44
e 38 46
e 38 48
e 38 49
e 38 50
e 38 51
e 38 52
e 38 53
e 38 57
e 38 62
e 38 65
e 38 67
e 38 68
e 38 69
e 38 70
e 38 76
e 38 83
e 38 84
e 38 85
e 38 88
e 38 90
e 38 93
e 38 95
e 38 96
e 38 100
e 38 101
e 38 102
e 38 106
e 38 108
e 38 111
e 38 112
e 38 117
e 38 118
e 38 119
e 38 124
e 38 129
e 38 130
e 38 131
e 38 135
e 38 141
e 38 143
e 38 149
e 38 150
e 38 166
e 38 167
e 38 169
e 38 170
e 38 179
e 38 181
e 38 184
e 38 189
e 38 194
e 38 197
e 38 205
e 38 215
e 38 221
e 38 227
e 38 231
e 38 236
e 38 237
e 38 239
e 38 240
e 38 250
e 39 43
e 39 45
e 39 47
e 39 48
e 39 50
e 39 58
e 39 73
e 39 75
e 39 76
e 39 110
e 39 125
e 39 127
e 39 130
e 39 138
e 39 140
e 39 143
e 39 164
e 39 172
e 39 173
e 39 176
e 39 184
e 39 189
e 39 192
e 39 195
e 39 196
e 39 205
e 39 207
e 39 213
e 39 217
e 40 42
e 40 43
e 40 49
e 40 59
e 40 60
e 40 63
e 40 68
e 40 74
e 40 78
e 40 82
e 40 87
e 40 92
e 40 93
e 40 105
e 40 111
e 40 115
e 40 122
e 40 132
e 40 140
e 40 141
e 40 151
e 40 152
e 40 153
e 40 154
e 40 156
e 40 159
e 40 180
e 40 182
e 40 189
e 40 193
e 40 203
e 40 204
e 40 209
e 40 224
e 40 241
e 40 249
e 40 250
e 41 44
e 41 50
e 41 53
e 41 60
e 41 61
e 41 63
e 41 68
e 41 69
e 41 75
e 41 86
e 41 88
e 41 94
e 41 105
e 41 107
e 41 108
e 41 122
e 41 137
e 41 146
e 41 159
e 41 174
e 41 178
e 41 194
e 41 208
e 41 244
e 41 251
e 42 43
e 42 45
e 42 47
e 42 49
e 42 51
e 42 57
e 42 58
e 42 59
e 42 61
e 42 63
e 42 66
e 42 77
e 42 80
e 42 91
e 42 103
e 42 110
e 42 111
e 42 121
e 42 123
e 42 141
e 42 146
e 42 147
e 42 150
e 42 179
e 42 184
e 42 201
e 42 204
e 42 209
e 42 212
e 42 213
e 42 217
e 42 220
e 42 231
e 42 245
e 42 251
e 43 44
e 43 53
e 43 56
e 43 61
e 43 66
e 43 79
e 43 80
e 43 85
e 43 89
e 43 99
e 43 103
e 43 106
e 43 109
e 43 123
e 43 125
e 43 127
e 43 128
e 43 135
e 43 136
e 43 146
e 43 153
e 43 154
e 43 167
e 43 171
e 43 176
e 43 178
e 43 180
e 43 193
e 43 205
e 43 235
e 43 238
e 44 46
e 44 48
e 44 49
e 44 56
e 44 62
e 44 72
e 44 74
e 44 81
e 44 82
e 44 83
e 44 87
e 44 93
e 44 94
e 44 102
e 44 121
e 44 126
e 44 135
e 44 138
e 44 156
e 44 163
e 44 164
e 44 177
e 44 180
e 44 197
e 44 200
e 44 205
e 44 207
e 44 212
e 44 248
e 45 52
e 45 54
e 45 60
e 45 67
e 45 122
e 45 123
e 45 138
e 45 141
e 45 145
e 45 147
e 45 158
e 45 167
e 45 184
e 45 188
e 45 207
e 45 208
e 45 210
e 45 240
e 46 50
e 46 51
e 46 52
e 46 54
e 46 55
e 46 57
e 46 58
e 46 66
e 46 67
e 46 75
e 46 80
e 46 97
e 46 116
e 46 118
e 46 121
e 46 123
e 46 128
e 46 138
e 46 163
e 46 172
e 46 174
e 46 183
e 46 192
e 46 196
e 46 200
e 46 239
e 47 48
e 47 49
e 47 51
e 47 52
e 47 63
e 47 69
e 47 73
e 47 75
e 47 83
e 47 93
e 47 99
e 47 104
e 47 115
e 47 119
e 47 131
e 47 132
e 47 134
e 47 151
e 47 156
e 47 157
e 47 185
e 47 186
e 47 222
e 47 226
e 47 228
e 47 233
e 48 52
e 48 62
e 48 64
e 48 67
e 48 76
e 48 79
e 48 90
e 48 91
e 48 111
e 48 126
e 48 142
e 48 143
e 48 175
e 48 201
e 48 221
e 48 224
e 48 245
e 48 249
e 49 51
e 49 54
e 49 56
e 49 60
e 49 65
e 49 71
e 49 73
e 49 77
e 49 83
e 49 90
e 49 94
e 49 97
e 49 98
e 49 104
e 49 105
e 49 114
e 49 117
e 49 119
e 49 125
e 49 136
e 49 143
e 49 149
e 49 152
e 49 162
e 49 164
e 49 171
e 49 174
e 49 219
e 49 222
e 49 229
e 49 230
e 49 237
e 49 240
e 49 241
e 50 83
e 50 84
e 50 85
e 50 89
e 50 96
e 50 111
e 50 129
e 50 131
e 50 134
e 50 139
e 50 149
e 50 150
e 50 153
e 50 183
e 50 187
e 50 200
e 50 214
e 50 231
e 50 247
e 51 53
e 51 57
e 51 60
e 51 65
e 51 66
e 51 85
e 51 88
e 51 92
e 51 102
e 51 105
e 51 107
e 51 127
e 51 131
e 51 133
e 51 134
e 51 140
e 51 159
e 51 168
e 51 169
e 51 185
e 51 188
e 51 191
e 51 196
e 51 198
e 51 201
e 51 213
e 51 216
e 51 219
e 51 234
e 51 247
e 52 55
e 52 58
e 52 65
e 52 68
e 52 72
e 52 76
e 52 77
e 52 78
e 52 79
e 52 93
e 52 105
e 52 112
e 52 116
e 52 120
e 52 122
e 52 126
e 52 133
e 52 143
e 52 154
e 52 190
e 52 226
e 52 227
e 52 229
e 52 237
e 52 246
e 53 56
e 53 58
e 53 59
e 53 63
e 53 65
e 53 70
e 53 73
e 53 82
e 53 84
e 53 87
e 53 91
e 53 92
e 53 94
e 53 104
e 53 112
e 53 116
e 53 132
e 53 141
e 53 149
e 53 155
e 53 157
e 53 165
e 53 173
e 53 179
e 53 183
e 53 204
e 53 209
e 53 222
e 53 228
e 53 234
e 54 55
e 54 56
e 54 58
e 54 59
e 54 60
e 54 62
e 54 69
e 54 74
e 54 78
e 54 79
e 54 92
e 54 93
e 54 99
e 54 102
e 54 110
e 54 115
e 54 122
e 54 128
e 54 130
e 54 132
e 54 157
e 54 183
e 54 193
e 54 201
e 54 203
e 54 213
e 54 224
e 54 241
e 54 251
e 55 63
e 55 70
e 55 75
e 55 78
e 55 79
e 55 82
e 55 84
e 55 86
e 55 95
e 55 98
e 55 106
e 55 117
e 55 118
e 55 120
e 55 122
e 55 129
e 55 133
e 55 137
e 55 145
e 55 163
e 55 170
e 55 171
e 55 175
e 55 177
e 55 181
e 55 189
e 55 190
e 55 195
e 55 197
e 55 202
e 55 210
e 55 212
e 55 222
e 55 226
e 55 229
e 55 242
e 56 59
e 56 64
e 56 71
e 56 92
e 56 117
e 56 138
e 56 142
e 56 152
e 56 169
e 56 199
e 56 212
e 56 216
e 56 225
e 56 227
e 56 232
e 56 243
e 57 58
e 57 65
e 57 80
e 57 84
e 57 89
e 57 90
e 57 96
e 57 106
e 57 112
e 57 116
e 57 126
e 57 132
e 57 136
e 57 138
e 57 143
e 57 160
e 57 175
e 57 177
e 57 186
e 57 189
e 57 199
e 57 202
e 57 210
e 57 218
e 57 223
e 57 231
e 58 59
e 58 60
e 58 62
e 58 66
e 58 67
e 58 69
e 58 70
e 58 83
e 58 86
e 58 90
e 58 99
e 58 106
e 58 110
e 58 114
e 58 129
e 58 142
e 58 172
e 58 176
e 58 191
e 58 206
e 58 207
e 58 210
e 58 211
e 58 214
e 58 215
e 58 226
e 58 235
e 58 244
e 59 68
e 59 69
e 59 70
e 59 79
e 59 100
e 59 101
e 59 108
e 59 113
e 59 116
e 59 118
e 59 136
e 59 142
e 59 167
e 59 172
e 59 185
e 59 190
e 59 191
e 59 200
e 59 204
e 59 213
e 59 221
e 59 222
e 59 227
e 59 231
e 59 232
e 59 239
e 59 240
e 59 242
e 59 247
e 60 62
e 60 72
e 60 73
e 60 74
e 60 77
e 60 78
e 60 79
e 60 86
e 60 87
e 60 94
e 60 96
e 60 104
e 60 113
e 60 114
e 60 122
e 60 128
e 60 141
e 60 144
e 60 149
e 60 185
e 60 186
e 60 188
e 60 189
e 60 202
e 60 214
e 60 246
e 60 249
e 61 62
e 61 64
e 61 65
e 61 78
e 61 79
e 61 84
e 61 89
e 61 92
e 61 98
e 61 110
e 61 131
e 61 155
e 61 185
e 61 192
e 61 209
e 61 211
e 61 216
e 61 218
e 61 224
e 61 227
e 61 245
e 61 246
e 61 249
e 62 71
e 62 87
e 62 91
e 62 94
e 62 96
e 62 97
e 62 99
e 62 107
e 62 110
e 62 118
e 62 119
e 62 123
e 62 132
e 62 136
e 62 152
e 62 153
e 62 164
e 62 171
e 62 192
e 62 201
e 62 211
e 62 215
e 63 88
e 63 95
e 63 96
e 63 102
e 63 106
e 63 111
e 63 116
e 63 126
e 63 129
e 63 131
e 63 135
e 63 140
e 63 151
e 63 156
e 63 158
e 63 165
e 63 176
e 63 206
e 63 225
e 63 238
e 64 68
e 64 69
e 64 80
e 64 83
e 64 96
e 64 100
e 64 103
e 64 113
e 64 147
e 64 155
e 64 161
e 64 166
e 64 168
e 64 174
e 64 209
e 64 211
e 64 219
e 64 229
e 64 230
e 64 236
e 64 238
e 65 66
e 65 67
e 65 68
e 65 74
e 65 79
e 65 93
e 65 94
e 65 99
e 65 102
e 65 103
e 65 109
e 65 110
e 65 127
e 65 133
e 65 137
e 65 138
e 65 148
e 65 149
e 65 152
e 65 159
e 65 161
e 65 186
e 65 202
e 65 207
e 65 229
e 65 233
e 65 238
e 65 250
e 66 68
e 66 70
e 66 77
e 66 86
e 66 87
e 66 89
e 66 91
e 66 92
e 66 96
e 66 100
e 66 101
e 66 106
e 66 111
e 66 114
e 66 115
e 66 116
e 66 120
e 66 121
e 66 124
e 66 127
e 66 130
e 66 145
e 66 153
e 66 156
e 66 158
e 66 160
e 66 178
e 66 206
e 66 220
e 66 224
e 66 247
e 67 92
e 67 103
e 67 104
e 67 113
e 67 118
e 67 150
e 67 162
e 67 175
e 67 187
e 67 188
e 67 193
e 67 203
e 67 210
e 67 215
e 68 71
e 68 76
e 68 78
e 68 80
e 68 82
e 68 93
e 68 103
e 68 114
e 68 137
e 68 187
e 68 194
e 68 204
e 68 228
e 68 231
e 68 232
e 68 236
e 68 238
e 69 71
e 69 72
e 69 74
e 69 77
e 69 80
e 69 87
e 69 91
e 69 96
e 69 103
e 69 117
e 69 120
e 69 123
e 69 125
e 69 137
e 69 142
e 69 146
e 69 149
e 69 157
e 69 161
e 69 178
e 69 184
e 69 186
e 69 201
e 69 212
e 69 216
e 69 222
e 69 231
e 69 234
e 69 242
e 70 76
e 70 78
e 70 81
e 70 83
e 70 84
e 70 89
e 70 90
e 70 117
e 70 120
e 70 121
e 70 128
e 70 130
e 70 138
e 70 143
e 70 146
e 70 162
e 70 178
e 70 179
e 70 200
e 70 208
e 70 214
e 70 228
e 70 237
e 71 72
e 71 73
e 71 77
e 71 78
e 71 87
e 71 104
e 71 106
e 71 110
e 71 112
e 71 115
e 71 118
e 71 130
e 71 135
e 71 147
e 71 160
e 71 207
e 71 213
e 71 221
e 71 225
e 71 240
e 71 242
e 72 74
e 72 76
e 72 77
e 72 90
e 72 95
e 72 105
e 72 117
e 72 140
e 72 142
e 72 147
e 72 148
e 72 164
e 72 198
e 73 75
e 73 81
e 73 87
e 73 90
e 73 95
e 73 97
e 73 100
e 73 105
e 73 109
e 73 115
e 73 116
e 73 117
e 73 127
e 73 133
e 73 139
e 73 146
e 73 151
e 73 152
e 73 155
e 73 158
e 73 205
e 73 212
e 73 219
e 73 221
e 73 225
e 73 226
e 73 243
e 73 249
e 73 251
e 74 81
e 74 88
e 74 92
e 74 98
e 74 99
e 74 104
e 74 108
e 74 114
e 74 118
e 74 124
e 74 133
e 74 142
e 74 153
e 74 156
e 74 158
e 74 166
e 74 176
e 74 181
e 74 201
e 74 211
e 74 246
e 75 98
e 75 103
e 75 114
e 75 127
e 75 129
e 75 145
e 75 169
e 75 179
e 75 184
e 75 196
e 75 199
e 75 208
e 75 244
e 75 245
e 75 251
e 76 92
e 76 99
e 76 110
e 76 117
e 76 123
e 76 137
e 76 144
e 76 181
e 76 191
e 76 203
e 76 216
e 76 221
e 76 233
e 76 245
e 77 81
e 77 83
e 77 91
e 77 92
e 77 102
e 77 106
e 77 108
e 77 114
e 77 119
e 77 120
e 77 128
e 77 158
e 77 168
e 77 174
e 77 179
e 77 190
e 77 193
e 77 223
e 77 224
e 77 235
e 77 243
e 78 80
e 78 100
e 78 112
e 78 118
e 78 126
e 78 129
e 78 130
e 78 135
e 78 157
e 78 179
e 78 200
e 78 214
e 78 236
e 78 240
e 79 81
e 79 84
e 79 85
e 79 88
e 79 90
e 79 104
e 79 109
e 79 114
e 79 115
e 79 121
e 79 124
e 79 125
e 79 131
e 79 133
e 79 148
e 79 155
e 79 160
e 79 185
e 79 187
e 79 197
e 79 203
e 80 86
e 80 94
e 80 103
e 80 107
e 80 109
e 80 125
e 80 153
e 80 178
e 80 181
e 80 201
e 80 205
e 80 206
e 80 232
e 81 96
e 81 101
e 81 104
e 81 111
e 81 112
e 81 121
e 81 142
e 81 145
e 81 178
e 81 183
e 81 189
e 81 200
e 81 209
e 81 217
e 82 168
e 82 220
e 82 234
e 82 245
e 83 110
e 83 128
e 83 129
e 83 131
e 83 150
e 83 185
e 83 242
e 84 89
e 84 93
e 84 102
e 84 117
e 84 118
e 84 138
e 84 158
e 84 164
e 84 167
e 84 185
e 85 86
e 85 98
e 85 100
e 85 102
e 85 112
e 85 115
e 85 118
e 85 119
e 85 124
e 85 137
e 85 144
e 85 147
e 85 151
e 85 152
e 85 158
e 85 159
e 85 161
e 85 162
e 85 169
e 85 202
e 85 207
e 85 208
e 85 217
e 85 224
e 85 235
e 85 238
e 86 90
e 86 95
e 86 98
e 86 106
e 86 118
e 86 134
e 86 135
e 86 148
e 86 179
e 86 195
e 86 201
e 86 203
e 86 216
e 86 235
e 86 241
e 86 245
e 87 97
e 87 124
e 87 143
e 87 145
e 87 174
e 87 176
e 87 189
e 87 216
e 87 222
e 87 239
e 88 100
e 88 120
e 88 154
e 88 229
e 88 237
e 88 241
e 88 248
e 89 111
e 89 130
e 89 150
e 89 155
e 89 165
e 89 167
e 89 176
e 89 186
e 89 191
e 89 194
e 89 199
e 89 219
e 89 228
e 89 246
e 89 247
e 90 99
e 90 113
e 90 118
e 90 121
e 90 126
e 90 157
e 90 184
e 90 188
e 90 193
e 90 199
e 90 200
e 90 201
e 90 212
e 90 223
e 90 244
e 90 246
e 90 248
e 91 95
e 91 97
e 91 104
e 91 136
e 91 155
e 91 159
e 91 171
e 91 177
e 91 199
e 91 203
e 92 97
e 92 159
e 92 161
e 92 180
e 92 228
e 92 242
e 93 94
e 93 111
e 93 113
e 93 121
e 93 129
e 93 148
e 93 150
e 93 157
e 93 164
e 93 165
e 93 166
e 93 197
e 93 199
e 93 216
e 93 228
e 93 237
e 93 251
e 94 106
e 94 135
e 94 139
e 94 146
e 94 163
e 94 175
e 94 179
e 94 190
e 94 200
e 94 208
e 94 225
e 94 226
e 95 111
e 95 122
e 95 128
e 95 137
e 95 163
e 95 181
e 95 193
e 95 202
e 95 221
e 95 236
e 95 244
e 96 98
e 96 100
e 96 103
e 96 120
e 96 122
e 96 134
e 96 145
e 96 153
e 96 154
e 96 163
e 96 166
e 96 173
e 96 179
e 96 182
e 96 183
e 96 211
e 96 215
e 96 218
e 96 229
e 97 99
e 97 121
e 97 146
e 97 154
e 97 209
e 97 217
e 98 112
e 98 114
e 98 135
e 98 156
e 98 171
e 98 172
e 98 183
e 98 195
e 98 205
e 98 240
e 98 244
e 99 100
e 99 103
e 99 105
e 99 113
e 99 115
e 99 120
e 99 123
e 99 133
e 99 142
e 99 146
e 99 149
e 99 161
e 99 164
e 99 180
e 99 181
e 99 190
e 99 211
e 99 225
e 99 242
e 100 115
e 100 119
e 100 131
e 100 132
e 100 134
e 100 157
e 100 184
e 100 186
e 100 194
e 100 204
e 100 208
e 101 102
e 101 109
e 101 111
e 101 113
e 101 114
e 101 120
e 101 126
e 101 130
e 101 131
e 101 136
e 101 138
e 101 139
e 101 145
e 101 148
e 101 155
e 101 162
e 101 169
e 101 170
e 101 173
e 101 191
e 101 199
e 101 202
e 101 247
e 102 104
e 102 123
e 102 138
e 102 141
e 102 147
e 102 172
e 102 228
e 102 233
e 102 235
e 102 240
e 102 241
e 103 104
e 103 108
e 103 115
e 103 161
e 103 179
e 103 184
e 103 225
e 103 240
e 104 107
e 104 114
e 104 117
e 104 125
e 104 128
e 104 141
e 104 144
e 104 160
e 104 161
e 104 165
e 104 189
e 104 191
e 104 198
e 104 204
e 104 218
e 104 223
e 104 250
e 105 109
e 105 121
e 105 126
e 105 130
e 105 132
e 105 134
e 105 152
e 105 157
e 105 173
e 105 174
e 105 177
e 105 183
e 105 194
e 105 196
e 105 226
e 105 230
e 105 233
e 105 247
e 106 111
e 106 118
e 106 119
e 106 123
e 106 130
e 106 145
e 106 149
e 106 155
e 106 173
e 106 192
e 106 220
e 107 108
e 107 110
e 107 119
e 107 121
e 107 125
e 107 142
e 107 160
e 107 165
e 107 173
e 107 174
e 107 175
e 107 204
e 108 146
e 108 160
e 108 177
e 108 185
e 108 193
e 108 230
e 108 232
e 109 114
e 109 140
e 109 167
e 109 181
e 109 199
e 110 124
e 110 127
e 110 132
e 110 163
e 110 164
e 110 165
e 110 170
e 110 233
e 111 115
e 111 151
e 111 173
e 111 175
e 111 187
e 112 127
e 112 161
e 112 171
e 112 174
e 112 183
e 112 198
e 112 203
e 112 205
e 112 206
e 112 216
e 112 223
e 112 226
e 112 244
e 114 139
e 114 149
e 114 165
e 114 169
e 114 181
e 114 197
e 114 234
e 115 150
e 115 162
e 115 181
e 115 195
e 115 206
e 115 238
e 115 248
e 116 117
e 116 135
e 116 143
e 116 144
e 116 146
e 116 150
e 116 152
e 116 186
e 116 188
e 116 201
e 116 219
e 116 232
e 116 233
e 116 238
e 116 251
e 117 142
e 117 165
e 117 214
e 117 224
e 117 225
e 117 245
e 118 138
e 118 141
e 118 143
e 118 147
e 118 154
e 118 172
e 118 213
e 118 221
e 118 232
e 118 235
e 118 238
e 118 244
e 119 131
e 119 137
e 119 149
e 119 154
e 119 164
e 119 165
e 119 168
e 119 169
e 119 178
e 119 194
e 119 222
e 119 227
e 119 233
e 119 248
e 120 130
e 120 132
e 120 139
e 120 140
e 120 160
e 120 168
e 120 182
e 120 189
e 120 221
e 120 250
e 121 134
e 121 136
e 121 140
e 121 184
e 121 187
e 121 188
e 121 241
e 122 157
e 122 165
e 122 177
e 122 180
e 122 181
e 122 182
e 122 186
e 122 213
e 122 224
e 122 234
e 122 241
e 122 251
e 123 153
e 123 160
e 123 197
e 124 148
e 124 173
e 124 184
e 124 191
e 124 204
e 124 236
e 125 126
e 125 188
e 125 217
e 125 232
e 126 167
e 126 175
e 126 185
e 126 196
e 126 202
e 126 213
e 126 216
e 126 232
e 126 240
e 126 245
e 126 249
e 127 155
e 127 176
e 127 192
e 127 210
e 127 239
e 128 133
e 128 139
e 128 149
e 128 159
e 128 188
e 128 196
e 128 197
e 128 214
e 128 218
e 128 227
e 128 230
e 128 242
e 129 136
e 129 145
e 129 155
e 129 158
e 129 162
e 129 166
e 129 180
e 129 182
e 129 200
e 129 237
e 129 245
e 129 251
e 130 144
e 130 156
e 130 163
e 130 168
e 130 194
e 130 208
e 130 212
e 130 214
e 130 233
e 130 251
e 131 141
e 131 144
e 131 167
e 131 176
e 131 181
e 131 182
e 131 209
e 131 217
e 132 141
e 132 158
e 132 162
e 132 175
e 132 227
e 132 239
e 132 246
e 133 166
e 133 170
e 133 189
e 133 218
e 133 236
e 133 241
e 134 184
e 134 244
e 135 174
e 135 217
e 135 223
e 135 246
e 136 139
e 136 180
e 136 192
e 136 198
e 136 220
e 136 235
e 136 242
e 137 143
e 137 182
e 137 192
e 137 227
e 138 151
e 138 162
e 138 181
e 138 187
e 138 190
e 138 244
e 138 250
e 139 154
e 139 161
e 139 169
e 139 171
e 139 180
e 139 190
e 139 198
e 139 209
e 139 211
e 139 216
e 139 222
e 139 236
e 139 244
e 139 245
e 140 150
e 140 167
e 140 183
e 140 194
e 140 197
e 140 203
e 140 211
e 140 234
e 140 241
e 141 198
e 141 236
e 142 162
e 142 180
e 142 184
e 142 214
e 142 223
e 142 251
e 143 148
e 143 185
e 143 194
e 143 197
e 143 205
e 143 208
e 143 246
e 144 162
e 144 164
e 144 170
e 144 179
e 144 207
e 144 226
e 144 249
e 145 158
e 145 163
e 145 168
e 145 186
e 145 206
e 146 163
e 146 171
e 147 159
e 147 167
e 147 180
e 147 187
e 147 197
e 147 201
e 147 239
e 147 242
e 148 152
e 148 189
e 148 211
e 149 162
e 149 166
e 149 169
e 149 172
e 149 180
e 149 196
e 149 197
e 149 214
e 149 219
e 149 227
e 149 235
e 149 249
e 150 153
e 150 154
e 150 217
e 150 218
e 150 235
e 151 166
e 151 170
e 151 196
e 151 218
e 152 210
e 152 223
e 152 236
e 153 175
e 153 176
e 153 191
e 153 232
e 154 163
e 154 187
e 154 188
e 154 228
e 155 168
e 155 182
e 155 190
e 155 206
e 155 211
e 155 216
e 155 228
e 155 235
e 156 165
e 156 192
e 156 202
e 156 220
e 158 159
e 158 166
e 158 176
e 158 215
e 158 231
e 158 234
e 159 231
e 159 240
e 160 192
e 160 218
e 161 193
e 161 212
e 161 225
e 162 170
e 162 173
e 162 210
e 163 188
e 163 196
e 163 244
e 163 250
e 164 224
e 166 235
e 167 194
e 167 206
e 167 228
e 167 230
e 168 208
e 168 223
e 168 235
e 169 170
e 169 218
e 169 247
e 170 184
e 171 177
e 171 179
e 171 195
e 171 241
e 171 250
e 172 193
e 172 199
e 172 210
e 172 229
e 172 241
e 173 183
e 173 203
e 173 211
e 173 244
e 174 194
e 174 195
e 175 194
e 175 237
e 176 202
e 177 183
e 177 188
e 177 207
e 177 217
e 177 242
e 177 249
e 178 193
e 178 234
e 179 182
e 179 183
e 179 192
e 179 232
e 179 248
e 180 204
e 180 247
e 181 196
e 181 243
e 181 246
e 182 219
e 182 230
e 182 242
e 182 246
e 183 187
e 183 221
e 183 250
e 184 195
e 184 202
e 184 226
e 184 247
e 184 250
e 185 187
e 185 211
e 185 221
e 186 226
e 186 228
e 187 193
e 187 215
e 188 190
e 188 191
e 188 192
e 188 206
e 188 210
e 189 207
e 189 212
e 189 229
e 189 236
e 190 227
e 191 223
e 194 203
e 194 215
e 194 224
e 195 234
e 196 199
e 196 208
e 196 228
e 196 236
e 197 215
e 197 233
e 198 205
e 198 219
e 198 220
e 198 237
e 198 242
e 198 247
e 199 209
e 199 220
e 199 239
e 200 202
e 200 220
e 202 216
e 203 218
e 203 219
e 203 238
e 204 208
e 204 219
e 204 220
e 204 229
e 205 212
e 205 237
e 205 242
e 207 221
e 207 248
e 208 210
e 208 224
e 209 247
e 210 215
e 210 219
e 210 237
e 210 250
e 211 244
e 212 215
e 212 222
e 212 236
e 214 236
e 215 218
e 215 228
e 215 231
e 215 237
e 215 239
e 215 241
e 215 246
e 215 249
e 217 231
e 217 240
e 219 224
e 219 233
e 219 245
e 219 247
e 221 230
e 222 235
e 222 240
e 225 243
e 227 235
e 227 239
e 228 229
e 229 249
e 232 235
e 239 249
e 240 245
e 244 245
e 245 246
e 246 247
